&CONTROL
    calculation = 'scf'
    pseudo_dir = '/home/modeler/qe_pseudo'
    outdir = '/home/modeler/Lab2/Problem4/t1/11'
    tstress = .true.
    tprnfor = .true.
    disk_io = 'none'
/ 
&SYSTEM
    ecutwfc = 10
    ntyp = 1
    nat = 2
    ibrav = 0
/ 
&ELECTRONS
    diagonalization = 'david'
    mixing_beta = 0.5
    conv_thr = 1e-07
/ 
&IONS
/ 
&CELL
/ 
K_POINTS {automatic}
 11 11 11  0 0 0
ATOMIC_SPECIES
  Ge 72.63 Ge.pz-bhs.UPF
CELL_PARAMETERS {angstrom}
 0.0 2.5 2.5
 2.5 0.0 2.5
 2.5 2.5 0.0
ATOMIC_POSITIONS {angstrom}
  Ge 0.00000 0.00000 0.25000
  Ge 1.25000 1.25000 1.25000
