&BANDS
    outdir = '/home/modeler/Lab2/test'
    filband = 'Bandx.dat'
/
