&CONTROL
    calculation = 'scf'
    pseudo_dir = '/home/modeler/qe_pseudo'
    outdir = '/home/modeler/Lab2/Problem5/t1/5.68865542675_15.0'
    tstress = .true.
    tprnfor = .true.
    disk_io = 'none'
/ 
&SYSTEM
    ecutwfc = 15.0
    ntyp = 1
    nat = 2
    ibrav = 0
/ 
&ELECTRONS
    diagonalization = 'david'
    mixing_beta = 0.5
    conv_thr = 1e-07
/ 
&IONS
/ 
&CELL
/ 
K_POINTS {automatic}
 4 4 4  0 0 0
ATOMIC_SPECIES
  Ge 72.63 Ge.pz-bhs.UPF
CELL_PARAMETERS {angstrom}
 0.0 2.844327713375 2.844327713375
 2.844327713375 0.0 2.844327713375
 2.844327713375 2.844327713375 0.0
ATOMIC_POSITIONS {angstrom}
  Ge 0.00000 0.00000 0.00000
  Ge 1.42216 1.42216 1.42216
