&CONTROL
    calculation = 'vc-relax'
    forc_conv_thr = 0.001
    pseudo_dir = '/home/modeler/qe_pseudo'
    outdir = '/home/modeler/Lab2/Problem7c/t1/5.0'
    tstress = .true.
    tprnfor = .true.
    disk_io = 'none'
/ 
&SYSTEM
    ecutwfc = 30
    ntyp = 1
    nat = 2
    ibrav = 0
/ 
&ELECTRONS
    diagonalization = 'david'
    mixing_beta = 0.5
    conv_thr = 1e-07
/ 
&IONS
    ion_dynamics = 'bfgs'
/ 
&CELL
    cell_dofree = 'all'
    cell_dynamics = 'bfgs'
    press = 0.0
    press_conv_thr = 0.5
/ 
K_POINTS {automatic}
 4 4 4  0 0 0
ATOMIC_SPECIES
  Ge 72.63 Ge.pz-bhs.UPF
CELL_PARAMETERS {angstrom}
 0.0 2.5 2.5
 2.5 0.0 2.5
 2.5 2.5 0.0
ATOMIC_POSITIONS {angstrom}
  Ge 0.00000 0.00000 0.00000
  Ge 1.25000 1.25000 1.25000
