&CONTROL
    calculation = 'scf'
    pseudo_dir = '/home/modeler/qe_pseudo'
    outdir = '/home/modeler/Lab2/Problem7a/t2/5.525000000000002'
    tstress = .true.
    tprnfor = .true.
    disk_io = 'none'
/ 
&SYSTEM
    ecutwfc = 40
    ntyp = 1
    nat = 2
    ibrav = 0
/ 
&ELECTRONS
    diagonalization = 'david'
    mixing_beta = 0.5
    conv_thr = 1e-07
/ 
&IONS
/ 
&CELL
/ 
K_POINTS {automatic}
 5 5 5  0 0 0
ATOMIC_SPECIES
  Ge 72.63 Ge.pz-bhs.UPF
CELL_PARAMETERS {angstrom}
 0.0 2.762500000000001 2.762500000000001
 2.762500000000001 0.0 2.762500000000001
 2.762500000000001 2.762500000000001 0.0
ATOMIC_POSITIONS {angstrom}
  Ge 0.00000 0.00000 0.00000
  Ge 1.38125 1.38125 1.38125
